NAME 
ROWS
 N  OBJ
 L  ULC[0]  
 L  ULC[1]  
 L  ULC[2]  
 L  ULC[3]  
 L  ULC[4]  
 L  LLC[0]  
 L  LLC[1]  
 L  LLC[2]  
 L  LLC[3]  
 L  LLC[4]  
COLUMNS
    MARKER    'MARKER'                 'INTORG'
    X[0]      OBJ       12
    X[0]      ULC[0]    41
    X[0]      ULC[1]    23
    X[0]      ULC[2]    50
    X[0]      ULC[3]    9
    X[0]      ULC[4]    26
    X[0]      LLC[0]    72
    X[0]      LLC[1]    38
    X[0]      LLC[2]    99
    X[0]      LLC[3]    1
    X[0]      LLC[4]    23
    X[1]      OBJ       -13
    X[1]      ULC[0]    74
    X[1]      ULC[1]    62
    X[1]      ULC[2]    21
    X[1]      ULC[3]    23
    X[1]      ULC[4]    12
    X[1]      LLC[0]    87
    X[1]      LLC[1]    71
    X[1]      LLC[2]    78
    X[1]      LLC[3]    75
    X[1]      LLC[4]    21
    X[2]      OBJ       20
    X[2]      ULC[0]    34
    X[2]      ULC[1]    89
    X[2]      ULC[2]    41
    X[2]      ULC[3]    69
    X[2]      ULC[4]    13
    X[2]      LLC[0]    63
    X[2]      LLC[1]    7
    X[2]      LLC[2]    1
    X[2]      LLC[3]    31
    X[2]      LLC[4]    71
    X[3]      OBJ       -29
    X[3]      ULC[0]    40
    X[3]      ULC[1]    3
    X[3]      ULC[2]    58
    X[3]      ULC[3]    88
    X[3]      ULC[4]    66
    X[3]      LLC[0]    88
    X[3]      LLC[1]    32
    X[3]      LLC[2]    100
    X[3]      LLC[3]    50
    X[3]      LLC[4]    16
    X[4]      OBJ       -48
    X[4]      ULC[0]    1
    X[4]      ULC[1]    7
    X[4]      ULC[2]    4
    X[4]      ULC[3]    65
    X[4]      ULC[4]    55
    X[4]      LLC[0]    3
    X[4]      LLC[1]    53
    X[4]      LLC[2]    41
    X[4]      LLC[3]    25
    X[4]      LLC[4]    54
    X[5]      OBJ       39
    X[5]      ULC[0]    23
    X[5]      ULC[1]    77
    X[5]      ULC[2]    77
    X[5]      ULC[3]    35
    X[5]      ULC[4]    33
    X[5]      LLC[0]    76
    X[5]      LLC[1]    40
    X[5]      LLC[2]    29
    X[5]      LLC[3]    49
    X[5]      LLC[4]    86
    X[6]      OBJ       -21
    X[6]      ULC[0]    72
    X[6]      ULC[1]    11
    X[6]      ULC[2]    22
    X[6]      ULC[3]    15
    X[6]      ULC[4]    72
    X[6]      LLC[0]    80
    X[6]      LLC[1]    65
    X[6]      LLC[2]    4
    X[6]      LLC[3]    80
    X[6]      LLC[4]    89
    X[7]      OBJ       -50
    X[7]      ULC[0]    16
    X[7]      ULC[1]    94
    X[7]      ULC[2]    92
    X[7]      ULC[3]    97
    X[7]      ULC[4]    3
    X[7]      LLC[0]    75
    X[7]      LLC[1]    74
    X[7]      LLC[2]    48
    X[7]      LLC[3]    12
    X[7]      LLC[4]    62
    X[8]      OBJ       31
    X[8]      ULC[0]    77
    X[8]      ULC[1]    68
    X[8]      ULC[2]    9
    X[8]      ULC[3]    77
    X[8]      ULC[4]    1
    X[8]      LLC[0]    14
    X[8]      LLC[1]    8
    X[8]      LLC[2]    58
    X[8]      LLC[3]    54
    X[8]      LLC[4]    1
    X[9]      OBJ       -20
    X[9]      ULC[0]    86
    X[9]      ULC[1]    98
    X[9]      ULC[2]    71
    X[9]      ULC[3]    58
    X[9]      ULC[4]    34
    X[9]      LLC[0]    65
    X[9]      LLC[1]    62
    X[9]      LLC[2]    51
    X[9]      LLC[3]    29
    X[9]      LLC[4]    70
    Y[0]      OBJ       -3
    Y[0]      ULC[0]    30
    Y[0]      ULC[1]    69
    Y[0]      ULC[2]    13
    Y[0]      ULC[3]    75
    Y[0]      ULC[4]    6
    Y[0]      LLC[0]    94
    Y[0]      LLC[1]    67
    Y[0]      LLC[2]    84
    Y[0]      LLC[3]    31
    Y[0]      LLC[4]    52
    Y[1]      OBJ       -33
    Y[1]      ULC[0]    78
    Y[1]      ULC[1]    26
    Y[1]      ULC[2]    27
    Y[1]      ULC[3]    31
    Y[1]      ULC[4]    56
    Y[1]      LLC[0]    19
    Y[1]      LLC[1]    66
    Y[1]      LLC[2]    39
    Y[1]      LLC[3]    73
    Y[1]      LLC[4]    60
    Y[2]      OBJ       -23
    Y[2]      ULC[0]    57
    Y[2]      ULC[1]    37
    Y[2]      ULC[2]    43
    Y[2]      ULC[3]    61
    Y[2]      ULC[4]    95
    Y[2]      LLC[0]    19
    Y[2]      LLC[1]    73
    Y[2]      LLC[2]    84
    Y[2]      LLC[3]    45
    Y[2]      LLC[4]    19
    Y[3]      OBJ       5
    Y[3]      ULC[0]    89
    Y[3]      ULC[1]    2
    Y[3]      ULC[2]    60
    Y[3]      ULC[3]    52
    Y[3]      ULC[4]    96
    Y[3]      LLC[0]    27
    Y[3]      LLC[1]    27
    Y[3]      LLC[2]    10
    Y[3]      LLC[3]    15
    Y[3]      LLC[4]    86
    Y[4]      OBJ       41
    Y[4]      ULC[0]    85
    Y[4]      ULC[1]    36
    Y[4]      ULC[2]    13
    Y[4]      ULC[3]    44
    Y[4]      ULC[4]    74
    Y[4]      LLC[0]    71
    Y[4]      LLC[2]    73
    Y[4]      LLC[3]    27
    Y[4]      LLC[4]    19
    Y[5]      OBJ       -15
    Y[5]      ULC[0]    61
    Y[5]      ULC[1]    36
    Y[5]      ULC[2]    65
    Y[5]      ULC[3]    26
    Y[5]      ULC[4]    11
    Y[5]      LLC[0]    19
    Y[5]      LLC[1]    68
    Y[5]      LLC[2]    82
    Y[5]      LLC[3]    38
    Y[5]      LLC[4]    53
    Y[6]      OBJ       -18
    Y[6]      ULC[0]    99
    Y[6]      ULC[1]    1
    Y[6]      ULC[2]    31
    Y[6]      ULC[3]    47
    Y[6]      ULC[4]    8
    Y[6]      LLC[0]    79
    Y[6]      LLC[1]    43
    Y[6]      LLC[2]    74
    Y[6]      LLC[3]    43
    Y[6]      LLC[4]    21
    Y[7]      OBJ       -1
    Y[7]      ULC[0]    38
    Y[7]      ULC[1]    81
    Y[7]      ULC[2]    34
    Y[7]      ULC[3]    89
    Y[7]      ULC[4]    14
    Y[7]      LLC[0]    14
    Y[7]      LLC[1]    41
    Y[7]      LLC[2]    48
    Y[7]      LLC[3]    45
    Y[7]      LLC[4]    85
    Y[8]      OBJ       -16
    Y[8]      ULC[0]    61
    Y[8]      ULC[1]    87
    Y[8]      ULC[2]    96
    Y[8]      ULC[3]    2
    Y[8]      ULC[4]    1
    Y[8]      LLC[0]    66
    Y[8]      LLC[1]    89
    Y[8]      LLC[2]    84
    Y[8]      LLC[3]    47
    Y[8]      LLC[4]    54
    Y[9]      OBJ       37
    Y[9]      ULC[0]    45
    Y[9]      ULC[1]    60
    Y[9]      ULC[2]    31
    Y[9]      ULC[3]    50
    Y[9]      ULC[4]    36
    Y[9]      LLC[0]    88
    Y[9]      LLC[1]    56
    Y[9]      LLC[2]    54
    Y[9]      LLC[3]    65
    Y[9]      LLC[4]    71
    MARKER    'MARKER'                 'INTEND'
RHS
    RHS1      ULC[0]    830
    RHS1      ULC[1]    725
    RHS1      ULC[2]    643
    RHS1      ULC[3]    759
    RHS1      ULC[4]    534
    RHS1      LLC[0]    1012
    RHS1      LLC[1]    889
    RHS1      LLC[2]    933
    RHS1      LLC[3]    791
    RHS1      LLC[4]    972
BOUNDS
 BV BND1      X[0]    
 BV BND1      X[1]    
 BV BND1      X[2]    
 BV BND1      X[3]    
 BV BND1      X[4]    
 BV BND1      X[5]    
 BV BND1      X[6]    
 BV BND1      X[7]    
 BV BND1      X[8]    
 BV BND1      X[9]    
 BV BND1      Y[0]    
 BV BND1      Y[1]    
 BV BND1      Y[2]    
 BV BND1      Y[3]    
 BV BND1      Y[4]    
 BV BND1      Y[5]    
 BV BND1      Y[6]    
 BV BND1      Y[7]    
 BV BND1      Y[8]    
 BV BND1      Y[9]    
ENDATA
